(declare-fun v10 () (_ BitVec 13))
(declare-fun v17 () (_ BitVec 9))
(declare-fun a83 () (Array (_ BitVec 7) (_ BitVec 2)))
(assert
(let (($e1 (_ bv0 1)))
(let (($e6 (_ bv1 1)))
(let (($e9 (_ bv173 8)))
(let (($e13 (_ bv125 9)))
(let (($e34 (_ bv0 12)))
(let (($e50 (_ bv2047 11)))
(let (($e156        a83             ))
(let (($e196               $e13 ))
(let (($e197         $e196      ))
(let (($e221                            $e6     ))
(let (($e222        (bvnot $e221)       ))
(let (($e482 (concat $e34 (bvnot $e222))))
(let (($e483            $e482 ))
(let (($e484               v10                ))
(let (($e485 (bvand        $e484         $e483 )))
(let (($e486 ((_ extract 7 0) v17)))
(let (($e487             $e9 ))
(let (($e488                  $e487 ))
(let (($e489      (bvult $e488 $e486)         ))
(let (($e495              $e489 ))
(let (($e496                             $e495  ))
(let (($e497             $e496          ))
(let (($e499                    $e50      ))
(let (($e500 (concat $e499 $e497)))
(let (($e501         $e500       ))
(let (($e502 (concat $e1 $e501)))
(let (($e503 (bvand $e485 $e502)))
(let (($e505 ((_ extract 7 1) $e197)))
(let (($e506 (select $e156 $e505)))
(let (($e508               $e506                ))
(let (($e509               $e508                ))
(let (($e510 (   extract      $e509)))
(let (($e511             $e510          ))
(let (($e512            $e511 ))
             (ite        $e512  $e503 $e485)
                                                                                                                                                                                                                                                                                                                                                                                                                                                                                                                                                                                                                                                                                                                                                                                                                                                                                                                                                                                                                                                                                                                                                                                                                                                                                                                                                                                                                                                                                                                                                                                                                                                                                                                                                                                                                                                                                                                                                                                                                                                                                                                                                                                                                                                                                                                                                                                                                                                                                                                                                                                                                                                                                                                                                                                                                                                                                                                                                                                                                                                                                                                                                                                                                                                                                                                                                                                                                                                                                                                                                                                                                                                                                                                                                                                                                                                                                                                                                                                                                                                                                                                                                                                                                                                                                                                                                                                                                                                                                                                                                                                                                                                                                                                                                                                                                                                                                                                                                                                                                                                                                                                                                                                                                                                                                                                                                                                                                                                                                                                                                   ))))) )) ))))) )))     ))))))))                                                                                                                                                                                                                                                                   ))                       ))                                       )                                                                             )               )                    )   )  )    ))
